% File represents an instance of a Composite Structure problem to be solved by a CP framework
% Created on 2025-03-26 10:41:48.405
T = 52;
n = 36;
m = 60;
edges = [(1, 2),
(7, 8),
(13, 14),
(19, 20),
(25, 26),
(32, 31),
(2, 3),
(8, 9),
(14, 15),
(20, 21),
(26, 27),
(33, 32),
(4, 3),
(10, 9),
(16, 15),
(22, 21),
(28, 27),
(33, 34),
(5, 4),
(11, 10),
(17, 16),
(23, 22),
(29, 28),
(35, 34),
(6, 5),
(12, 11),
(18, 17),
(23, 24),
(29, 30),
(35, 36),
(7, 1),
(13, 7),
(19, 13),
(19, 25),
(25, 31),
(8, 2),
(14, 8),
(20, 14),
(20, 26),
(26, 32),
(9, 3),
(15, 9),
(15, 21),
(21, 27),
(33, 27),
(4, 10),
(16, 10),
(22, 16),
(22, 28),
(28, 34),
(5, 11),
(17, 11),
(23, 17),
(23, 29),
(29, 35),
(6, 12),
(18, 12),
(18, 24),
(24, 30),
(30, 36)];
counts = [|8, 20, 8, 8,
|6, 18, 6, 8,
|6, 16, 6, 8,
|6, 20, 6, 10,
|6, 20, 6, 14,
|6, 22, 6, 16,
|8, 20, 8, 10,
|6, 20, 6, 8,
|6, 18, 6, 8,
|6, 20, 6, 8,
|6, 20, 6, 12,
|6, 20, 6, 16,
|8, 22, 8, 10,
|6, 22, 6, 10,
|6, 20, 6, 10,
|6, 20, 6, 12,
|6, 20, 6, 16,
|6, 22, 6, 16,
|8, 22, 8, 12,
|6, 22, 6, 12,
|6, 18, 6, 10,
|6, 20, 6, 14,
|6, 20, 6, 20,
|6, 20, 6, 16,
|6, 22, 6, 10,
|6, 20, 6, 10,
|4, 18, 4, 10,
|4, 20, 4, 12,
|6, 20, 6, 14,
|6, 20, 6, 12,
|6, 16, 6, 10,
|6, 18, 6, 10,
|6, 20, 6, 10,
|4, 18, 4, 10,
|6, 18, 6, 12,
|6, 18, 6, 10|];
